1410
4129
3814
4141
1698
3553
4061
2627
4048
3965
4249
2196
2555
3939
2315
3551
2224
2824
1776
3747
1051
3444
1847
623
1348
801
1299
3967
1981
1442
3769
3654
779
3332
2881
4019
2120
3776
855
1891
2460
2068
2766
1041
1541
3283
2621
3308
2450
1852
1286
2991
826
1331
2093
2061
1795
1291
1033
2509
2034
273
1934
662
1272
1616
3696
4225
2648
681
1176
2423
915
2874
476
447
1549
4009
4067
286
4154
4112
1629
2398
2497
248
1480
1307
2867
2613
4002
3317
275
2175
2602
2588
4119
2644
150
2121
